c description: Random 3-CNF over 18 variables and 77 clauses
c generator: CNFgen (0.9.2)
c copyright: (C) 2012-2022 Massimo Lauria <massimo.lauria@uniroma1.it>
c url: https://massimolauria.net/cnfgen
c command line: cnfgen --output CNF_4.28/18_bit_77_395.cnf randkcnf 3 18 77
c
p cnf 18 77
2 8 -15 0
-3 -6 11 0
2 17 -18 0
-2 -3 10 0
-9 12 -15 0
3 6 16 0
-8 13 16 0
10 11 -18 0
2 -9 11 0
-2 -5 10 0
10 -14 17 0
-1 11 -14 0
2 -5 7 0
-1 2 -17 0
-1 -11 -13 0
1 2 -8 0
-5 13 14 0
3 4 -14 0
2 4 14 0
-8 16 -18 0
3 -6 12 0
-4 -6 18 0
1 7 -13 0
-1 -3 14 0
-6 -12 18 0
-8 -16 18 0
5 -6 8 0
2 6 -7 0
1 -10 11 0
4 12 18 0
2 16 -17 0
-4 6 -7 0
-2 12 16 0
-5 8 10 0
3 -11 13 0
-8 12 14 0
-6 9 11 0
5 9 14 0
-5 -11 16 0
-1 2 -14 0
1 3 -13 0
-9 -11 -15 0
-5 6 -15 0
1 -6 -14 0
1 16 -17 0
-1 7 17 0
5 -8 18 0
2 -15 -18 0
2 13 -14 0
6 -7 -9 0
4 -10 14 0
1 6 -18 0
-6 8 16 0
-3 11 16 0
-8 -14 18 0
-5 -12 -17 0
-1 7 -17 0
-1 -4 -17 0
-5 -13 18 0
-4 -14 17 0
-5 -8 -11 0
-2 4 8 0
14 15 18 0
10 11 12 0
1 7 -10 0
-11 15 -17 0
-2 -5 -18 0
10 16 -18 0
-5 6 12 0
-3 11 14 0
-1 6 7 0
-7 -11 18 0
-9 -14 15 0
3 -13 16 0
5 -17 18 0
-1 3 -13 0
-3 9 -18 0
